56
28
0 28 29 30 31 32 33 34 37 38 39 42 47 50 52 55
1 28 29 32 33 36 37 38 39 42 43 44 47 48 49 51 52 55
2 28 29 30 31 32 33 34 37 39 42 44 45 47 48 49 50 53 54 55
3 28 29 30 31 32 33 34 36 37 38 39 42 47 48 49 53 54 55
4 28 30 31 32 33 36 37 39 42 47 48 49 50 52
5 28 29 30 33 38 42 46 48 49 50 53 55
6 28 30 31 32 36 37 38 41 42 47 50 52 53 55
7 28 29 32 33 34 35 36 38 39 40 42 44 47 49 50 52 53 55
8 28 29 30 32 38 42 47 48 49 50 52 53
9 29 30 32 33 36 37 41 44 47 48 53 54 55
10 29 30 31 32 37 39 41 47 49 50 55
11 30 32 34 37 42 47 48 51 53 55
12 29 31 32 33 35 37 38 39 51 52
13 28 31 32 33 34 36 37 39 42 44 47 53
14 30 42 46 48 52 55
15 29 30 32 33 36 37 38 42 43 44 50 53 55
16 28 29 34 38 42 47 53
17 29 30 38 39 41 43 44 47 50 51 53
18 28 29 30 33 39 46 48 49 52
19 28 31 34 35 42 43 44 50 55
20 29 30 40 43 53
21 34 43 45 48 50 54
22 33 47 48 52
23 28 36 46 48 55
24 31 37 44 50 52 55
25 47
26 33
27
